 # Version information for this restart file 
 # current date 2020-08-25 16:09:39.620
 # current working dir /scratch/snx3000/bhubmann/run_3/cp2k_vibr_12units_7agnr_defect_N_B/geo
 # Program compiled at                              Wed Nov  6 21:00:18 CET 2019
 # Program compiled on                                                  daint105
 # Program compiled for                         CP2K-6.1-CrayGNU-19.10-cuda-10.1
 # Source code revision number                                         svn:18464
 &GLOBAL
   EXTENDED_FFT_LENGTHS  T
   PRINT_LEVEL  LOW
   PROJECT_NAME PROJ
   RUN_TYPE  GEO_OPT
   WALLTIME 86000
 &END GLOBAL
 &MOTION
   &GEO_OPT
     OPTIMIZER  BFGS
     MAX_ITER  1600
     MAX_FORCE     5.0000000000000002E-05
     STEP_START_VAL  25
     &BFGS
       TRUST_RADIUS     5.2917720859000011E-02
     &END BFGS
   &END GEO_OPT
 &END MOTION
 &FORCE_EVAL
   METHOD  QS
   &DFT
     BASIS_SET_FILE_NAME ./BR
     POTENTIAL_FILE_NAME ./GR
     WFN_RESTART_FILE_NAME ./PROJ-RESTART.wfn
     &SCF
       MAX_SCF  20
       EPS_SCF     1.0000000000000001E-09
       SCF_GUESS  ATOMIC
       &OT  T
         MINIMIZER  CG
         PRECONDITIONER  FULL_SINGLE_INVERSE
       &END OT
       &OUTER_SCF  T
         EPS_SCF     1.0000000000000001E-09
         MAX_SCF  50
       &END OUTER_SCF
       &PRINT
         &RESTART  SILENT
           ADD_LAST  NUMERIC
           FILENAME RESTART
           &EACH
             QS_SCF  0
             GEO_OPT  1
           &END EACH
         &END RESTART
         &RESTART_HISTORY  OFF
         &END RESTART_HISTORY
       &END PRINT
     &END SCF
     &QS
       EPS_DEFAULT     1.0000000000000000E-14
       EXTRAPOLATION  ASPC
       EXTRAPOLATION_ORDER  3
       METHOD  GPW
     &END QS
     &MGRID
       NGRIDS  5
       CUTOFF     6.0000000000000000E+02
     &END MGRID
     &XC
       DENSITY_CUTOFF     1.0000000000000000E-10
       GRADIENT_CUTOFF     1.0000000000000000E-10
       TAU_CUTOFF     1.0000000000000000E-10
       &XC_FUNCTIONAL  NO_SHORTCUT
         &PADE  T
         &END PADE
       &END XC_FUNCTIONAL
     &END XC
   &END DFT
   &SUBSYS
     &CELL
       A     8.0000000000000014E+01    0.0000000000000000E+00    0.0000000000000000E+00
       B     0.0000000000000000E+00    2.5000000000000004E+01    0.0000000000000000E+00
       C     0.0000000000000000E+00    0.0000000000000000E+00    1.5000000000000002E+01
       MULTIPLE_UNIT_CELL  1 1 1
     &END CELL
     &COORD
C    1.4973659815713139E+01    1.0017465074264242E+01    7.5013218486005595E+00
C    1.5671155299544798E+01    8.8025549416801105E+00    7.5010096544460909E+00
C    1.7054358588435701E+01    8.8044272082942694E+00    7.5005815545883729E+00
C    1.7782313513489164E+01    1.0014168538285967E+01    7.5005232387846963E+00
C    1.9228179879557523E+01    1.0026770003944373E+01    7.5001947434941840E+00
C    1.9970955983938982E+01    8.8230033883945609E+00    7.4998503541276484E+00
C    2.1343371783158947E+01    8.8250097304998505E+00    7.4996481377309356E+00
C    2.2078403519924574E+01    1.0033674538254424E+01    7.4996901258527213E+00
C    2.3517846059630344E+01    1.0034893937775578E+01    7.4995469854573917E+00
C    2.4259656252167787E+01    8.8282186575364339E+00    7.4992472450584300E+00
C    2.5631861070210746E+01    8.8282617007953128E+00    7.4991709945670459E+00
C    2.6371935655604510E+01    1.0035802188842990E+01    7.4993765012730380E+00
C    2.7810512545125974E+01    1.0037337431755148E+01    7.4993856775535361E+00
C    2.8552477418348207E+01    8.8311286484988010E+00    7.4991789180598385E+00
C    2.9924007556533326E+01    8.8320625597076106E+00    7.4992273237097393E+00
C    3.0666447735451811E+01    1.0039726993724413E+01    7.4994845786081425E+00
C    3.2103749630451652E+01    1.0039725438483257E+01    7.4995676134525837E+00
C    3.2822039145055065E+01    8.8188686764108990E+00    7.4995222453817476E+00
C    3.4189615388743682E+01    8.7992364205902494E+00    7.4996090998520923E+00
C    3.4950951498243761E+01    9.9922879156751812E+00    7.4997294603889806E+00
C    3.6375354172562950E+01    9.9458477413933810E+00    7.4998113091953087E+00
C    3.7158368033609420E+01    8.7767206376750533E+00    7.4997617088592596E+00
C    3.8543746606167836E+01    8.8380180214149036E+00    7.4998310698330242E+00
C    3.9278950504757198E+01    1.0043962550981096E+01    7.4998729897413829E+00
C    4.0724872690651452E+01    1.0047078442823613E+01    7.4999555935452937E+00
C    4.1467738110130661E+01    8.8372007468687706E+00    7.4998676463077087E+00
C    4.2842910357273084E+01    8.8283699067031147E+00    7.4998875154381262E+00
C    4.3604837569002989E+01    1.0026950163516016E+01    7.5000048414058025E+00
C    4.5042358177219015E+01    1.0028843198444033E+01    7.4999804166731314E+00
C    4.5784039978571776E+01    8.8226964302503799E+00    7.4998372851100426E+00
C    4.7156193481839161E+01    8.8244188601992235E+00    7.4998105669634771E+00
C    4.7895832292890738E+01    1.0033131573807076E+01    7.4998970447292042E+00
C    4.9334307733606302E+01    1.0034323284969831E+01    7.4998383739173731E+00
C    5.0075804884056851E+01    8.8274322042826370E+00    7.4996240606546269E+00
C    5.1447756690276563E+01    8.8277952597550673E+00    7.4995293925909667E+00
C    5.2188194261244313E+01    1.0035324449427574E+01    7.4996577200448282E+00
C    5.3626845524943278E+01    1.0035531213910243E+01    7.4995595279044576E+00
C    5.4367101707211376E+01    8.8283079668738402E+00    7.4992017665546484E+00
C    5.5739127421610391E+01    8.8286793030047761E+00    7.4990591579498851E+00
C    5.6479902136045638E+01    1.0035811597650250E+01    7.4992460473369160E+00
C    5.7919193870250361E+01    1.0034791451217384E+01    7.4990166637000932E+00
C    5.8654027587683053E+01    8.8260782236190369E+00    7.4985618997282995E+00
C    6.0026348192022112E+01    8.8240623998973131E+00    7.4983145095918307E+00
C    6.0768876208602208E+01    1.0027935899333247E+01    7.4986113626241435E+00
C    6.2214629338735172E+01    1.0015424848342519E+01    7.4982893083572471E+00
C    6.2942420622884384E+01    8.8056428859352156E+00    7.4977278089906090E+00
C    6.4325583408871495E+01    8.8037148872994138E+00    7.4973562134610301E+00
C    6.5023088497466688E+01    1.0018645530082955E+01    7.4975515330194566E+00
C    1.4858223286881477E+01    1.2499325682480784E+01    7.5016912605337112E+00
C    1.5651878927701460E+01    1.1228843510275867E+01    7.5012823539711748E+00
C    1.7070921387423933E+01    1.1250232988853188E+01    7.5008419034524216E+00
C    1.7793581139780880E+01    1.2499401358795515E+01    7.5008126394913690E+00
C    1.9203037780460683E+01    1.2499435336140804E+01    7.5005198601984402E+00
C    1.9930114635366653E+01    1.1257893717247255E+01    7.5001751883081589E+00
C    2.1363403967574808E+01    1.1261990135248590E+01    7.5000038687440957E+00
C    2.2083895653683676E+01    1.2499511041574051E+01    7.5000301655512995E+00
C    2.3503792660329914E+01    1.2499550178186102E+01    7.4999133975157850E+00
C    2.4226351290024585E+01    1.1264002373832968E+01    7.4996863104526392E+00
C    2.5659710226895054E+01    1.1264431106749335E+01    7.4996161895001210E+00
C    2.6379695565261226E+01    1.2499630809671903E+01    7.4997258140362071E+00
C    2.7800327617263090E+01    1.2499673667966107E+01    7.4997233618899415E+00
C    2.8521511043457334E+01    1.1266001386532647E+01    7.4995729069756649E+00
C    2.9955531032190486E+01    1.1267700229791881E+01    7.4995958778154312E+00
C    3.0679363492809102E+01    1.2499760631855755E+01    7.4997804690590515E+00
C    3.2105437015285418E+01    1.2499805236880377E+01    7.4998093854444408E+00
C    3.2827129964786899E+01    1.1265720136585541E+01    7.4997243822079831E+00
C    3.4267835197459071E+01    1.1255664673405260E+01    7.4998189912424333E+00
C    3.4985306721571263E+01    1.2499890103253575E+01    7.4999011255989805E+00
N    3.6381007248189277E+01    1.2499929338624938E+01    7.4999796396190845E+00
B    3.7117148866413025E+01    1.1242600995678616E+01    7.4998956291513448E+00
N    3.8574309431088032E+01    1.1246116236166451E+01    7.4999707604733503E+00
B    3.9300075561912131E+01    1.2500005875924646E+01    7.5000687110775228E+00
C    4.0788934028055394E+01    1.2500044635165027E+01    7.5001430399520865E+00
C    4.1472025601910538E+01    1.1265974877252974E+01    7.5000436619139075E+00
C    4.2904043351671248E+01    1.1257338666001884E+01    7.5000758215354271E+00
C    4.3615534264911972E+01    1.2500118891341677E+01    7.5002412626004675E+00
C    4.5036764965630354E+01    1.2500157065715603E+01    7.5002519104270888E+00
C    4.5752132722751831E+01    1.1262213481862929E+01    7.5001091316915947E+00
C    4.7185230605861960E+01    1.1262898097675944E+01    7.5000942369357908E+00
C    4.7904019610086323E+01    1.2500234972322280E+01    7.5002555969771203E+00
C    4.9324516740791857E+01    1.2500274452136255E+01    7.5001895866470978E+00
C    5.0044266210863967E+01    1.1264299017541411E+01    7.5000075975307565E+00
C    5.1477465073876466E+01    1.1264406943037788E+01    7.4999158199471019E+00
C    5.2197350180294734E+01    1.2500352836133590E+01    7.5000881722104076E+00
C    5.3617486354176833E+01    1.2500391906200425E+01    7.5000602458235806E+00
C    5.4337792520735192E+01    1.1264838889026828E+01    7.4996992300275149E+00
C    5.5771067340474431E+01    1.1264771580453615E+01    7.4996043447877856E+00
C    5.6493481580200566E+01    1.2500466698031097E+01    7.4998399668841760E+00
C    5.7913235404602055E+01    1.2500502383444546E+01    7.4996639399170819E+00
C    5.8633861789609092E+01    1.1263102111266839E+01    7.4993234019650519E+00
C    6.0067020600605957E+01    1.1259044794387933E+01    7.4990522367102193E+00
C    6.0793993797863685E+01    1.2500574692936262E+01    7.4993206470806744E+00
C    6.2203345355591942E+01    1.2500606830575002E+01    7.4989993826048424E+00
C    6.2925960752511443E+01    1.1251466949849096E+01    7.4985199914492711E+00
C    6.4344949296123588E+01    1.1230079364465189E+01    7.4981390630861116E+00
C    6.5138491529675846E+01    1.2500678441017758E+01    7.4983037481800601E+00
C    1.4973530728731141E+01    1.4981190925398220E+01    7.5020091247538367E+00
C    1.5651811022240592E+01    1.3769848147993812E+01    7.5015944846342526E+00
C    1.7070854200626581E+01    1.3748530785102661E+01    7.5011760042117412E+00
C    1.7782182637654749E+01    1.4984628186141427E+01    7.5011579375217670E+00
C    1.9228048149751960E+01    1.4972096551558016E+01    7.5007977330409528E+00
C    1.9930048592347028E+01    1.3741011520588943E+01    7.5005086897017614E+00
C    2.1363336965491698E+01    1.3736989494259634E+01    7.5002824161501911E+00
C    2.2078270010214620E+01    1.4965341104311584E+01    7.5003053027684663E+00
C    2.3517709210972267E+01    1.4964201495660518E+01    7.5001309899137816E+00
C    2.4226282981808374E+01    1.3735134507181694E+01    7.4999571312009250E+00
C    2.5659640796924879E+01    1.3734787261480934E+01    7.4998987627240892E+00
C    2.6371794709378044E+01    1.4963457442024760E+01    7.4999004485149205E+00
C    2.7810370347870204E+01    1.4962008165728355E+01    7.4998966444434592E+00
C    2.8521439897619278E+01    1.3733387220808593E+01    7.4998234137417850E+00
C    2.9955459508754558E+01    1.3731776483402548E+01    7.4998297346322582E+00
C    3.0666304132309083E+01    1.4959792942231941E+01    7.4999497168057774E+00
C    3.2103606929577978E+01    1.4959884050210533E+01    7.5000123961510399E+00
C    3.2827059480747543E+01    1.3733932568336812E+01    7.4999261307710059E+00
C    3.4267765064473167E+01    1.3744074413017447E+01    7.5000273138540976E+00
C    3.4950811207806765E+01    1.5007490994777884E+01    7.5001358633073583E+00
C    3.6375212938387563E+01    1.5054009635844409E+01    7.5002217956334700E+00
B    3.7117079992931622E+01    1.3757296887189559E+01    7.5001132445642957E+00
N    3.8574241523274800E+01    1.3753856986866797E+01    7.5001518617730865E+00
C    3.9278818869294511E+01    1.4956047475426798E+01    7.5003670036863719E+00
C    4.0724741830781582E+01    1.4953007557477582E+01    7.5004207857315217E+00
C    4.1471959956062875E+01    1.3734150566315675E+01    7.5002962454112048E+00
C    4.2903977232215681E+01    1.3742861721415327E+01    7.5003708669747446E+00
C    4.3604705526363134E+01    1.4973287758220641E+01    7.5005651003461811E+00
C    4.5042226106437639E+01    1.4971472558126811E+01    7.5006335591811286E+00
C    4.5752066201315053E+01    1.3738139891924209E+01    7.5004387178827132E+00
C    4.7185164301805088E+01    1.3737533381642860E+01    7.5004417213853944E+00
C    4.7895699511946091E+01    1.4967338935127978E+01    7.5006730849081462E+00
C    4.9334174691009878E+01    1.4966227229621083E+01    7.5006542512192320E+00
C    5.0044199600314286E+01    1.3736290252125926E+01    7.5004321762198840E+00
C    5.1477399030906476E+01    1.3736261509164391E+01    7.5003794958587964E+00
C    5.2188062364960679E+01    1.4965383792149483E+01    7.5006074146641373E+00
C    5.3626714773334861E+01    1.4965254960300253E+01    7.5005766244757117E+00
C    5.4337728022372282E+01    1.3735985208150019E+01    7.5002426654777015E+00
C    5.5771003639985615E+01    1.3736127971908468E+01    7.5001460205817132E+00
C    5.6479774355105079E+01    1.4965126358046817E+01    7.5004272586669680E+00
C    5.7919068849140579E+01    1.4966220681746213E+01    7.5002427197519559E+00
C    5.8633798491225889E+01    1.3737943222351007E+01    7.4999335434221477E+00
C    6.0066958244158918E+01    1.3742071778303105E+01    7.4996988800115680E+00
C    6.0768751487025824E+01    1.4973217366625619E+01    7.4999240824280173E+00
C    6.2214504929549499E+01    1.4985794143875113E+01    7.4996012922458872E+00
C    6.2925896910518588E+01    1.3749783378840895E+01    7.4992261997498240E+00
C    6.4344884909271812E+01    1.3771239532949952E+01    7.4988143268647036E+00
C    6.5022965165739421E+01    1.4982707755824666E+01    7.4989916863840831E+00
C    1.5670963804622218E+01    1.6196139268925222E+01    7.5019811656411886E+00
C    1.7054168040505353E+01    1.6194336298244018E+01    7.5015540822971696E+00
C    1.9970760125598687E+01    1.6175900572662059E+01    7.5008110241877395E+00
C    2.1343174978385623E+01    1.6173964949802823E+01    7.5005591699731324E+00
C    2.4259448392429547E+01    1.6170918285763726E+01    7.5000920792197574E+00
C    2.5631651850525412E+01    1.6170954412937427E+01    7.5000099637220838E+00
C    2.8552262057679492E+01    1.6168260796470950E+01    7.4999350831030922E+00
C    2.9923791566832826E+01    1.6167411466311862E+01    7.4999561573459284E+00
C    3.2821826155727145E+01    1.6180782951393876E+01    7.5001469516314474E+00
C    3.4189402429586622E+01    1.6200497286710196E+01    7.5002264312053990E+00
C    3.7158167031099786E+01    1.6223177578587229E+01    7.5004359382150909E+00
C    3.8543549451880985E+01    1.6161952407647565E+01    7.5004704062615613E+00
C    4.1467543710573942E+01    1.6162924415768316E+01    7.5006522307412835E+00
C    4.2842715420531718E+01    1.6171827696494738E+01    7.5007374325645202E+00
C    4.5783842643397591E+01    1.6177659662678966E+01    7.5008491221631237E+00
C    4.7155995732216432E+01    1.6176011700818648E+01    7.5008768620343433E+00
C    5.0075605967152342E+01    1.6173159600556893E+01    7.5009288623794408E+00
C    5.1447558355195675E+01    1.6172873313706180E+01    7.5009082208773492E+00
C    5.4366907391353692E+01    1.6172518414523100E+01    7.5008396953825596E+00
C    5.5738934078228276E+01    1.6172220381222704E+01    7.5007427949713694E+00
C    5.8653842112542371E+01    1.6174973006633554E+01    7.5004704703856850E+00
C    6.0026163303236139E+01    1.6177055948469150E+01    7.5002806841263361E+00
C    6.2942238529593318E+01    1.6195607934395493E+01    7.4997806622869154E+00
C    6.4325400265336356E+01    1.6197601734194222E+01    7.4994148995236216E+00
H    1.5121576559694418E+01    1.7147325364191349E+01    7.5023422505101047E+00
H    1.7586480674052538E+01    1.7153287312476380E+01    7.5015807194877908E+00
H    1.9446199348885365E+01    1.7139219037806217E+01    7.5010253187875389E+00
H    2.1871161096956627E+01    1.7135337087181256E+01    7.5006079338659788E+00
H    2.3734360422640538E+01    1.7133965072377730E+01    7.5001634917975615E+00
H    2.6157557764968740E+01    1.7133610687931913E+01    7.4999868328688208E+00
H    2.8027630561966017E+01    1.7131651061942200E+01    7.4999535377951814E+00
H    3.0445801006683656E+01    1.7131631186274408E+01    7.4999927684839411E+00
H    3.2278924694222276E+01    1.7133570493160057E+01    7.5002206584723004E+00
H    3.4715817468467854E+01    1.7164154991131795E+01    7.5003334007960634E+00
H    3.6694569097161384E+01    1.7222805972707754E+01    7.5005584842081028E+00
H    3.9103065140501229E+01    1.7103541222109559E+01    7.5006560316066953E+00
H    4.0946080402768743E+01    1.7128003687769059E+01    7.5007859987746723E+00
H    4.3356712670124381E+01    1.7141243246430662E+01    7.5009230098792008E+00
H    4.5255697301638307E+01    1.7139505827284523E+01    7.5010252154123300E+00
H    4.7683341549522723E+01    1.7137831573379529E+01    7.5010601531523760E+00
H    4.9550053599871688E+01    1.7135970611364964E+01    7.5011612766595501E+00
H    5.1973554115963090E+01    1.7135455428847330E+01    7.5011221471172806E+00
H    5.3841020076656456E+01    1.7135143273256897E+01    7.5011179272268942E+00
H    5.6264315288333144E+01    1.7135055885092424E+01    7.5009787076972740E+00
H    5.8125688301423239E+01    1.7136225159439753E+01    7.5007375458440215E+00
H    6.0550599779549685E+01    1.7140415622219589E+01    7.5004359198084734E+00
H    6.2409649270700534E+01    1.7154402668821191E+01    7.5000959472388269E+00
H    6.4874572803889933E+01    1.7148900272418050E+01    7.4995099907280496E+00
H    1.5121816883567650E+01    7.8513405101976765E+00    7.5010828422622122E+00
H    1.7586718946094727E+01    7.8455024611795290E+00    7.5003609214688822E+00
H    1.9446444224205472E+01    7.8596581018451293E+00    7.4998121197510361E+00
H    2.1871409683438213E+01    7.8636659685185215E+00    7.4994197190255107E+00
H    2.3734623052978289E+01    7.8651419426125591E+00    7.4990682538771996E+00
H    2.6157823110003768E+01    7.8656361546663662E+00    7.4989317958955377E+00
H    2.8027903872613894E+01    7.8677069591666378E+00    7.4989815613729291E+00
H    3.0446075841234784E+01    7.8678750042098873E+00    7.4990577130500062E+00
H    3.2279193034413517E+01    7.8660499086622799E+00    7.4994194388043374E+00
H    3.4716087936302614E+01    7.8356105358228714E+00    7.4995631649983601E+00
H    3.6694821108726451E+01    7.7770687270393433E+00    7.4997088341533624E+00
H    3.9103311233066613E+01    7.8964583646739683E+00    7.4997894821388673E+00
H    4.0946325500149271E+01    7.8720938730492085E+00    7.4997946918250165E+00
H    4.3356957433587070E+01    7.8589804766860913E+00    7.4998384746552063E+00
H    4.5255947272614613E+01    7.8608209199369705E+00    7.4997511316484236E+00
H    4.7683590062688218E+01    7.8626263842915600E+00    7.4996749617605643E+00
H    4.9550306682423901E+01    7.8645912184280959E+00    7.4995101778422644E+00
H    5.1973805106903392E+01    7.8652415847067640E+00    7.4993534074111432E+00
H    5.3841267109859359E+01    7.8656541020181399E+00    7.4990544464904172E+00
H    5.6264559500299868E+01    7.8658714379977654E+00    7.4987911230732012E+00
H    5.8125923565497757E+01    7.8647986828216156E+00    7.4982809091619895E+00
H    6.0550831348400216E+01    7.8607281726887148E+00    7.4979021303940883E+00
H    6.2409877077478342E+01    7.8468228451709763E+00    7.4975253650345257E+00
H    6.4874802617781981E+01    7.8524435120120764E+00    7.4968502865853246E+00
H    1.3872824709887402E+01    1.4976209855329964E+01    7.5023812467973992E+00
H    6.5817346485935971E+01    1.2500947109276344E+01    6.6172623682152976E+00
H    1.4178759214273231E+01    1.2499426321334330E+01    6.6211108525976741E+00
H    1.4179392004118501E+01    1.2499187864036392E+01    8.3827636155031104E+00
H    1.3872953576994309E+01    1.0022389578283738E+01    7.5016942254232131E+00
H    6.5817834726113659E+01    1.2500445829966353E+01    8.3789643068581210E+00
H    6.6123654120927469E+01    1.4977918480946416E+01    7.4986743618184919E+00
H    6.6123777277029163E+01    1.0023489373785349E+01    7.4972160613808150E+00
     &END COORD
     &KIND C
       BASIS_SET TZV2P-MOLOPT-GTH
       POTENTIAL GTH-PBE-q4
       &POTENTIAL
 2 2
  0.3384712400000000E+00 2 -0.8803673979999999E+01  0.1339210850000000E+01
 2
  0.3025757500000000E+00 1  0.9622486650000001E+01
  0.2915069400000000E+00 0
         # Potential name:  GTH-PBE-Q4  for symbol:  C
         # Potential read from the potential filename: ./GR
       &END POTENTIAL
     &END KIND
     &KIND B
       BASIS_SET DZVP-MOLOPT-SR-GTH
       POTENTIAL GTH-PBE-q3
       &POTENTIAL
 2 1
  0.4189914500000000E+00 2 -0.5859461710000000E+01  0.9037564300000001E+00
 2
  0.3713204600000000E+00 1  0.6297280180000000E+01
  0.3645630800000000E+00 0
         # Potential name:  GTH-PBE-Q3  for symbol:  B
         # Potential read from the potential filename: ./GR
       &END POTENTIAL
     &END KIND
     &KIND N
       BASIS_SET TZV2P-MOLOPT-GTH
       POTENTIAL GTH-PBE-q5
       &POTENTIAL
 2 3
  0.2837905100000000E+00 2 -0.1241522559000000E+02  0.1868095920000000E+01
 2
  0.2554050000000000E+00 1  0.1363026257000000E+02
  0.2454945300000000E+00 0
         # Potential name:  GTH-PBE-Q5  for symbol:  N
         # Potential read from the potential filename: ./GR
       &END POTENTIAL
     &END KIND
     &KIND H
       BASIS_SET TZV2P-MOLOPT-GTH
       POTENTIAL GTH-PBE-q1
       &POTENTIAL
 1
  0.2000000000000000E+00 2 -0.4178900440000000E+01  0.7244633100000000E+00
 0
         # Potential name:  GTH-PBE-Q1  for symbol:  H
         # Potential read from the potential filename: ./GR
       &END POTENTIAL
     &END KIND
     &TOPOLOGY
       COORD_FILE_NAME ./12units_7agnr_defect_N_B.xyz
       COORD_FILE_FORMAT  XYZ
       NUMBER_OF_ATOMS  224
       MULTIPLE_UNIT_CELL  1 1 1
       &CENTER_COORDINATES  T
       &END CENTER_COORDINATES
     &END TOPOLOGY
   &END SUBSYS
 &END FORCE_EVAL
