 # Version information for this restart file 
 # current date 2020-08-25 16:23:12.195
 # current working dir /scratch/snx3000/bhubmann/run_3/cp2k_vibr_12units_7agnr_defect_N/geo
 # Program compiled at                              Wed Nov  6 21:00:18 CET 2019
 # Program compiled on                                                  daint105
 # Program compiled for                         CP2K-6.1-CrayGNU-19.10-cuda-10.1
 # Source code revision number                                         svn:18464
 &GLOBAL
   EXTENDED_FFT_LENGTHS  T
   PRINT_LEVEL  LOW
   PROJECT_NAME PROJ
   RUN_TYPE  GEO_OPT
   WALLTIME 86000
 &END GLOBAL
 &MOTION
   &GEO_OPT
     OPTIMIZER  BFGS
     MAX_ITER  1600
     MAX_FORCE     5.0000000000000002E-05
     STEP_START_VAL  23
     &BFGS
       TRUST_RADIUS     5.2917720859000011E-02
     &END BFGS
   &END GEO_OPT
 &END MOTION
 &FORCE_EVAL
   METHOD  QS
   &DFT
     BASIS_SET_FILE_NAME ./BR
     POTENTIAL_FILE_NAME ./GR
     WFN_RESTART_FILE_NAME ./PROJ-RESTART.wfn
     &SCF
       MAX_SCF  20
       EPS_SCF     1.0000000000000001E-09
       SCF_GUESS  ATOMIC
       &OT  T
         MINIMIZER  CG
         PRECONDITIONER  FULL_SINGLE_INVERSE
       &END OT
       &OUTER_SCF  T
         EPS_SCF     1.0000000000000001E-09
         MAX_SCF  50
       &END OUTER_SCF
       &PRINT
         &RESTART  SILENT
           ADD_LAST  NUMERIC
           FILENAME RESTART
           &EACH
             QS_SCF  0
             GEO_OPT  1
           &END EACH
         &END RESTART
         &RESTART_HISTORY  OFF
         &END RESTART_HISTORY
       &END PRINT
     &END SCF
     &QS
       EPS_DEFAULT     1.0000000000000000E-14
       EXTRAPOLATION  ASPC
       EXTRAPOLATION_ORDER  3
       METHOD  GPW
     &END QS
     &MGRID
       NGRIDS  5
       CUTOFF     6.0000000000000000E+02
     &END MGRID
     &XC
       DENSITY_CUTOFF     1.0000000000000000E-10
       GRADIENT_CUTOFF     1.0000000000000000E-10
       TAU_CUTOFF     1.0000000000000000E-10
       &XC_FUNCTIONAL  NO_SHORTCUT
         &PADE  T
         &END PADE
       &END XC_FUNCTIONAL
     &END XC
   &END DFT
   &SUBSYS
     &CELL
       A     8.0000000000000014E+01    0.0000000000000000E+00    0.0000000000000000E+00
       B     0.0000000000000000E+00    2.5000000000000004E+01    0.0000000000000000E+00
       C     0.0000000000000000E+00    0.0000000000000000E+00    1.5000000000000002E+01
       MULTIPLE_UNIT_CELL  1 1 1
     &END CELL
     &COORD
C    1.5017612311216912E+01    1.0017388914862677E+01    7.5013578150287819E+00
C    1.5715101759961014E+01    8.8024369740521760E+00    7.5009907419853397E+00
C    1.7098285413264417E+01    8.8044599366444132E+00    7.5005971508870966E+00
C    1.7826052682081563E+01    1.0014317357760268E+01    7.5005000737030993E+00
C    1.9271772217484401E+01    1.0026828988487589E+01    7.5001532426802600E+00
C    2.0014289670639744E+01    8.8229131388496889E+00    7.4998772664311026E+00
C    2.1386657186773540E+01    8.8250283984715274E+00    7.4996169984785084E+00
C    2.2121616537437596E+01    1.0033629601833779E+01    7.4997404106410981E+00
C    2.3560962476527727E+01    1.0034497770119314E+01    7.4995395323212612E+00
C    2.4302067024479172E+01    8.8274485757241710E+00    7.4992550449880637E+00
C    2.5674472415100290E+01    8.8275557994262730E+00    7.4991681579052116E+00
C    2.6414773864955638E+01    1.0034225112752456E+01    7.4993713107903588E+00
C    2.7853841888590065E+01    1.0033901767442414E+01    7.4993895990687376E+00
C    2.8598289268495758E+01    8.8287263053363993E+00    7.4991727228822667E+00
C    2.9972447881391822E+01    8.8317783194588309E+00    7.4992473906522159E+00
C    3.0712172146829133E+01    1.0037290102941407E+01    7.4994342632489923E+00
C    3.2152756221990551E+01    1.0039409554670495E+01    7.4995330335001293E+00
C    3.2895434933404324E+01    8.8370957233677174E+00    7.4995004276847661E+00
C    3.4274647353605168E+01    8.8396202200279355E+00    7.4995385366858223E+00
C    3.5004844164087139E+01    1.0040664595881251E+01    7.4997863632108732E+00
C    3.6440145319552684E+01    1.0064239127083251E+01    7.4997699219689098E+00
C    3.7171001058152775E+01    8.8557554115724528E+00    7.4998443222741660E+00
C    3.8536359642040019E+01    8.8557523683508599E+00    7.4998382592458288E+00
C    3.9267309164216179E+01    1.0064236303139179E+01    7.4999669608755273E+00
C    4.0702690557274209E+01    1.0040784894802433E+01    7.4999050988776457E+00
C    4.1432996824253223E+01    8.8398498815305544E+00    7.4998918356425506E+00
C    4.2812286871102444E+01    8.8374450720761022E+00    7.4998643422134137E+00
C    4.3555046334309850E+01    1.0039727641370282E+01    7.4999656956929988E+00
C    4.4995733718448875E+01    1.0037704083034614E+01    7.4999481551551073E+00
C    4.5735654743061261E+01    8.8323042185791749E+00    7.4998269196081209E+00
C    4.7109920687853197E+01    8.8291831461783197E+00    7.4997804975007707E+00
C    4.7854616892253723E+01    1.0034229557046890E+01    7.4998919410944476E+00
C    4.9293758398428146E+01    1.0034517910964585E+01    7.4998357482592155E+00
C    5.0035083589960784E+01    8.8280913644439796E+00    7.4996469775933639E+00
C    5.1407674652756427E+01    8.8278785405765152E+00    7.4994973730052168E+00
C    5.2149056812410393E+01    1.0034956787270591E+01    7.4997262569636360E+00
C    5.3588009892998791E+01    1.0035380883552177E+01    7.4995070487455635E+00
C    5.4328555898827041E+01    8.8284013373992316E+00    7.4992158646828919E+00
C    5.5700673546394412E+01    8.8286913029432874E+00    7.4990700104072676E+00
C    5.6441490725026831E+01    1.0035789570167831E+01    7.4992004085407169E+00
C    5.7880895664287053E+01    1.0034749751817637E+01    7.4990429372962550E+00
C    5.8615942019146367E+01    8.8261190796886932E+00    7.4985178298509441E+00
C    5.9988313873387220E+01    8.8241132618260192E+00    7.4983181499904399E+00
C    6.0730837711128174E+01    1.0027984285105081E+01    7.4986153790365719E+00
C    6.2176625211099861E+01    1.0015484037061706E+01    7.4982580092962792E+00
C    6.2904626791958478E+01    8.8057352622412690E+00    7.4977591640298247E+00
C    6.4287859381078803E+01    8.8039300534285800E+00    7.4973022595892731E+00
C    6.4985133864454710E+01    1.0018955931175217E+01    7.4975812972153175E+00
C    1.4901937593949647E+01    1.2499320088222445E+01    7.5017099681382247E+00
C    1.5695644704661360E+01    1.1228832573464009E+01    7.5012427016207361E+00
C    1.7114660400756204E+01    1.1250303051605464E+01    7.5008497227409441E+00
C    1.7837314749497693E+01    1.2499399341196609E+01    7.5008118451867647E+00
C    1.9246729317170953E+01    1.2499432028281836E+01    7.5004848770959276E+00
C    1.9973666627591772E+01    1.1257912200139709E+01    7.5002449663905937E+00
C    2.1406893404008688E+01    1.1262126454283385E+01    7.4999497528566881E+00
C    2.2126993967365877E+01    1.2499504722815850E+01    7.5000454684779383E+00
C    2.3547137977447523E+01    1.2499542512689606E+01    7.4999377543274326E+00
C    2.4269262565832243E+01    1.1263801838353890E+01    7.4996642341593214E+00
C    2.5702760855781065E+01    1.1264368851380549E+01    7.4996188790088176E+00
C    2.6420479032122422E+01    1.2499623260876678E+01    7.4997239907439335E+00
C    2.7842473236969614E+01    1.2499665358138277E+01    7.4997032679639455E+00
C    2.8561603407377198E+01    1.1264758390305479E+01    7.4995304675403132E+00
C    2.9995569669430044E+01    1.1267750704113494E+01    7.4996412235539305E+00
C    3.0706569202670323E+01    1.2499751777996149E+01    7.4997165644403321E+00
C    3.2136805097197104E+01    1.2499794559330155E+01    7.4998141851971161E+00
C    3.2857816100514974E+01    1.1275727619957165E+01    7.4997338542852390E+00
C    3.4296801696864861E+01    1.1277811746919152E+01    7.4997290089289956E+00
C    3.5007337862158906E+01    1.2499878794712087E+01    7.4999382853635836E+00
C    3.7148710503683851E+01    1.1286455250381110E+01    7.4999553273693511E+00
C    3.8558842848111851E+01    1.1286483878785761E+01    7.4999420368922500E+00
N    3.9290918341740372E+01    1.2499997761584360E+01    7.5000762715593607E+00
C    4.0700201901645499E+01    1.2500036035333114E+01    7.5001179479585849E+00
C    4.1410752963132154E+01    1.1277984088217080E+01    7.5000388914234737E+00
C    4.2849813336427474E+01    1.1276018494991360E+01    7.5000650040419652E+00
C    4.3570790122848003E+01    1.2500113804437063E+01    7.5001514461415013E+00
C    4.5001236044569346E+01    1.2500153809197158E+01    7.5002533418659452E+00
C    4.5712420828760010E+01    1.1268206505784075E+01    7.5000465104599998E+00
C    4.7146568639024899E+01    1.1265258157750072E+01    7.5001063512880375E+00
C    4.7865549354293876E+01    1.2500233256852962E+01    7.5001803445836464E+00
C    4.9287854280001838E+01    1.2500273282558565E+01    7.5002600660222480E+00
C    5.0005371406959263E+01    1.1264828001094681E+01    7.4999836779711826E+00
C    5.1438893705455179E+01    1.1264428071986231E+01    7.4998867154672162E+00
C    5.2158687305545776E+01    1.2500354100255674E+01    7.5001316333615966E+00
C    5.3579338263405546E+01    1.2500393642431067E+01    7.5000267140396222E+00
C    5.4299179602360070E+01    1.1264893024700967E+01    7.4997432608586436E+00
C    5.5732668145159707E+01    1.1264770293233516E+01    7.4996148061286041E+00
C    5.6455063758562360E+01    1.2500470449219424E+01    7.4998104392265548E+00
C    5.7874971154589254E+01    1.2500506686613605E+01    7.4996595056759974E+00
C    5.8595541872051214E+01    1.1263092466842224E+01    7.4992850894752792E+00
C    6.0028776780669801E+01    1.1259013622065911E+01    7.4990458875071919E+00
C    6.0755678260440774E+01    1.2500577251247320E+01    7.4993205506544074E+00
C    6.2165042127161279E+01    1.2500608538328111E+01    7.4990139644554992E+00
C    6.2887867357784707E+01    1.1251541526274515E+01    7.4986080836949842E+00
C    6.4306867509520373E+01    1.1230250799272719E+01    7.4980895263568854E+00
C    6.5100517180898791E+01    1.2500684378730181E+01    7.4983048966579684E+00
C    1.5017480085330615E+01    1.4981252866796025E+01    7.5020073863962278E+00
C    1.5695577033070562E+01    1.3769847901298721E+01    7.5016105420102610E+00
C    1.7114594064836407E+01    1.3748456265140128E+01    7.5011464086342112E+00
C    1.7825919062716178E+01    1.4984476241550714E+01    7.5011444091265469E+00
C    1.9271638614351094E+01    1.4972031155029574E+01    7.5008148192418487E+00
C    1.9973599380294974E+01    1.3740986377557185E+01    7.5005174984774401E+00
C    2.1406825557957237E+01    1.3736843096183346E+01    7.5002980041552085E+00
C    2.2121482608115237E+01    1.4965376608135031E+01    7.5002940064277377E+00
C    2.3560827357435862E+01    1.4964584797313368E+01    7.5001508182755678E+00
C    2.4269194570189004E+01    1.3735321053711003E+01    7.4999352080211574E+00
C    2.5702691186457226E+01    1.3734835098484956E+01    7.4998773295243737E+00
C    2.6414634009559244E+01    1.4965018932532320E+01    7.4999497580571655E+00
C    2.7853700959905769E+01    1.4965427784194105E+01    7.4998414245374212E+00
C    2.8561533335842277E+01    1.3734613327944674E+01    7.4998439189151105E+00
C    2.9995499047400305E+01    1.3731708678481498E+01    7.4998430974629091E+00
C    3.0712030957976520E+01    1.4962211103545432E+01    7.4999390210654218E+00
C    3.2152615155320206E+01    1.4960179259551728E+01    7.5000352806472428E+00
C    3.2857747034211634E+01    1.3723902510785827E+01    7.4999047832666532E+00
C    3.4296733181783907E+01    1.3721904113306065E+01    7.5000005606922056E+00
C    3.5004707005614620E+01    1.4959092429277991E+01    7.5001262463934042E+00
C    3.6440010643299431E+01    1.4935601429070520E+01    7.5002265644798802E+00
C    3.7148643908520256E+01    1.3713424417509220E+01    7.5001182330694824E+00
C    3.8558776311484479E+01    1.3713471995804808E+01    7.5001746164363325E+00
C    3.9267176386418221E+01    1.4935757981297030E+01    7.5003785393395983E+00
C    4.0702556256416194E+01    1.4959287267642207E+01    7.5004410859666564E+00
C    4.1410686390896771E+01    1.3722126699119961E+01    7.5002761016815986E+00
C    4.2849746577184447E+01    1.3724170389437985E+01    7.5003646844453069E+00
C    4.3554911928069458E+01    1.4960499660780169E+01    7.5005534027309162E+00
C    4.4995599209713433E+01    1.4962603564630058E+01    7.5005703573004201E+00
C    4.5712353812494086E+01    1.3732141034453482E+01    7.5004145109774916E+00
C    4.7146501398470981E+01    1.3735169667950297E+01    7.5004256617790528E+00
C    4.7854481270834988E+01    1.4966238108332670E+01    7.5006982367068202E+00
C    4.9293623494093453E+01    1.4966031703270289E+01    7.5006562955129210E+00
C    5.0005303871976437E+01    1.3735760335578764E+01    7.5003925600486463E+00
C    5.1438826954001783E+01    1.3736241577717708E+01    7.5003952439639070E+00
C    5.2148922801550711E+01    1.4965752581695297E+01    7.5006251934900359E+00
C    5.3587876872701834E+01    1.4965409075484732E+01    7.5005944400192952E+00
C    5.4299113172725832E+01    1.3735934811124213E+01    7.5002472000482570E+00
C    5.5732603302648123E+01    1.3736134466678834E+01    7.5001776983358397E+00
C    5.6441361634424844E+01    1.4965153589302535E+01    7.5003885103359043E+00
C    5.7880767372247668E+01    1.4966266825503517E+01    7.5002634151692096E+00
C    5.8595476669773369E+01    1.3737959362666835E+01    7.4999142402168806E+00
C    6.0028712239091945E+01    1.3742107430285012E+01    7.4997173168891615E+00
C    6.0730709583556745E+01    1.4973173860527130E+01    7.4998779593411591E+00
C    6.2176497186038027E+01    1.4985737685943382E+01    7.4996771381429852E+00
C    6.2887804088240500E+01    1.3749713089845443E+01    7.4992118725400392E+00
C    6.4306803190015771E+01    1.3771079770224691E+01    7.4988497395517353E+00
C    6.4985007493365529E+01    1.4982411957729047E+01    7.4989743261655946E+00
C    1.5714903618486295E+01    1.6196245500766285E+01    7.5020005682632069E+00
C    1.7098087528295668E+01    1.6194298146081135E+01    7.5015484037827589E+00
C    2.0014094183987591E+01    1.6175982904545826E+01    7.5007986358879357E+00
C    2.1386460714908399E+01    1.6173938499758030E+01    7.5005827081176060E+00
C    2.4301862442584412E+01    1.6171674238618845E+01    7.5001025194196407E+00
C    2.5674266536857417E+01    1.6171645518735890E+01    7.4999937575109605E+00
C    2.8598076696221806E+01    1.6170647056545572E+01    7.4999775735940872E+00
C    2.9972235382028035E+01    1.6167677497817483E+01    7.4999602312696085E+00
C    3.2895225110298988E+01    1.6162536399992138E+01    7.5001443913195196E+00
C    3.4274438791436992E+01    1.6160093045716188E+01    7.5002388270737965E+00
C    3.7170801849029871E+01    1.6144125222739941E+01    7.5004079139169919E+00
C    3.8536160589166606E+01    1.6144201953871978E+01    7.5004826513429421E+00
C    4.1432797302651366E+01    1.6160262005045215E+01    7.5006855845486502E+00
C    4.2812086987388959E+01    1.6162741756028797E+01    7.5007364725371621E+00
C    4.5735452756517326E+01    1.6168045249630509E+01    7.5008789973840111E+00
C    4.7109718137890752E+01    1.6171243112992137E+01    7.5008406090235544E+00
C    5.0034881855224533E+01    1.6172500600496534E+01    7.5009398300279662E+00
C    5.1407472942716346E+01    1.6172789843397265E+01    7.5009116312880781E+00
C    5.4328359807567452E+01    1.6172429388581705E+01    7.5008277802522629E+00
C    5.5700478447045654E+01    1.6172213566068024E+01    7.5007685571260332E+00
C    5.8615753352297190E+01    1.6174935499470749E+01    7.5004557546993551E+00
C    5.9988126195300481E+01    1.6177010422517821E+01    7.5003072424001562E+00
C    6.2904436544406430E+01    1.6195520783403246E+01    7.4997541649462756E+00
C    6.4287669293441851E+01    1.6197398454298565E+01    7.4994315861921956E+00
H    1.5165666698127731E+01    1.7147492327565764E+01    7.5023696336015684E+00
H    1.7630651924046486E+01    1.7153104065263253E+01    7.5015755922481997E+00
H    1.9489520263386712E+01    1.7139255697390713E+01    7.5010298973212253E+00
H    2.1914618916802674E+01    1.7135211155550493E+01    7.5006162607457281E+00
H    2.3776389379794026E+01    1.7134442882981645E+01    7.5001731110377499E+00
H    2.6200520515585158E+01    1.7134234394292356E+01    7.4999989494209425E+00
H    2.8074621469545956E+01    1.7134626169193357E+01    7.4999760563444786E+00
H    3.0497861373951686E+01    1.7130808090356354E+01    7.5000159519859952E+00
H    3.2372543072398145E+01    1.7126582701699590E+01    7.5002409171424622E+00
H    3.4797436277574747E+01    1.7123656196341184E+01    7.5003467439444531E+00
H    3.6632743360430112E+01    1.7098279677452012E+01    7.5005137020248673E+00
H    3.9074037080390696E+01    1.7098455747144008E+01    7.5006482812323787E+00
H    4.0909679181823954E+01    1.7123770055541282E+01    7.5008414452156806E+00
H    4.3334569153138105E+01    1.7126895690795259E+01    7.5009426975522375E+00
H    4.5209736388838799E+01    1.7131137297883942E+01    7.5010169733233019E+00
H    4.7632974726790067E+01    1.7135346521722990E+01    7.5010859564312220E+00
H    4.9508761936323630E+01    1.7135197256268263E+01    7.5011539812370511E+00
H    5.1933203886339200E+01    1.7135527366310374E+01    7.5011294900157424E+00
H    5.3802523896293359E+01    1.7135123320291516E+01    7.5011210709466223E+00
H    5.6226030163690325E+01    1.7134957995291966E+01    7.5009734958139642E+00
H    5.8087662523484951E+01    1.7136231972792068E+01    7.5007430469217340E+00
H    6.0512657512841372E+01    1.7140327544066658E+01    7.5004374897206647E+00
H    6.2372050981669538E+01    1.7154429174473304E+01    7.5001078632134970E+00
H    6.4837033323255682E+01    1.7148576974638328E+01    7.4994950185004479E+00
H    1.5165917799773606E+01    7.8511596379026596E+00    7.5010999999949739E+00
H    1.7630901300915632E+01    7.8456827938903668E+00    7.5003503673975631E+00
H    1.9489765376288851E+01    7.8596135577418469E+00    7.4998076272494600E+00
H    2.1914866926734472E+01    7.8637840855096703E+00    7.4994199832091946E+00
H    2.3776647825386895E+01    7.8646507009856572E+00    7.4990741172116246E+00
H    2.6200781773506829E+01    7.8649973335001215E+00    7.4989356930253850E+00
H    2.8074890055595400E+01    7.8647169422117909E+00    7.4990004847469827E+00
H    3.0498131781797508E+01    7.8686796907900831E+00    7.4990738877479437E+00
H    3.2372807804009497E+01    7.8730199044121241E+00    7.4993590659427323E+00
H    3.4797701145248958E+01    7.8760880786743090E+00    7.4995149042893825E+00
H    3.6632993914345121E+01    7.9015722783378495E+00    7.4997666975358106E+00
H    3.9074287202233641E+01    7.9015274209125756E+00    7.4998561075908476E+00
H    4.0909930435444203E+01    7.8763136083554581E+00    7.4998086003075395E+00
H    4.3334820385636675E+01    7.8733187471207069E+00    7.4998311558020534E+00
H    4.5209992378588836E+01    7.8691823285538138E+00    7.4997199390024081E+00
H    4.7633229568454858E+01    7.8651078180216700E+00    7.4996785829224004E+00
H    4.9509018224995373E+01    7.8653644937255320E+00    7.4995093333576257E+00
H    5.1933457624872638E+01    7.8651691329565958E+00    7.4993544884399119E+00
H    5.3802773079974834E+01    7.8656781403882157E+00    7.4990512135970171E+00
H    5.6226276477473540E+01    7.8659745779302765E+00    7.4987832936946814E+00
H    5.8087901551319597E+01    7.8647948123656404E+00    7.4982653413128126E+00
H    6.0512893450084114E+01    7.8608221848533804E+00    7.4978936715657936E+00
H    6.2372290627162421E+01    7.8467992522703920E+00    7.4975141400573282E+00
H    6.4837274518152427E+01    7.8527810735667885E+00    7.4968022659513895E+00
H    1.3916787644254732E+01    1.4976261817948362E+01    7.5024205193071554E+00
H    6.5779237989074147E+01    1.2500944258727303E+01    6.6171709475513785E+00
H    1.4222570150488671E+01    1.2499415340944724E+01    6.6210853100135214E+00
H    1.4223269691648888E+01    1.2499188646026525E+01    8.3828795693792184E+00
H    1.3916919678063456E+01    1.0022321391969687E+01    7.5017188253039730E+00
H    6.5779814378409966E+01    1.2500458653533643E+01    8.3789861074649536E+00
H    6.6085709947451321E+01    1.4977214308618048E+01    7.4986545028403198E+00
H    6.6085836053103662E+01    1.0024210614415495E+01    7.4971687502667788E+00
N    3.6416642979057805E+01    1.2499919848966639E+01    7.4999512239280195E+00
     &END COORD
     &KIND C
       BASIS_SET TZV2P-MOLOPT-GTH
       POTENTIAL GTH-PBE-q4
       &POTENTIAL
 2 2
  0.3384712400000000E+00 2 -0.8803673979999999E+01  0.1339210850000000E+01
 2
  0.3025757500000000E+00 1  0.9622486650000001E+01
  0.2915069400000000E+00 0
         # Potential name:  GTH-PBE-Q4  for symbol:  C
         # Potential read from the potential filename: ./GR
       &END POTENTIAL
     &END KIND
     &KIND B
       BASIS_SET DZVP-MOLOPT-SR-GTH
       POTENTIAL GTH-PBE-q3
     &END KIND
     &KIND N
       BASIS_SET TZV2P-MOLOPT-GTH
       POTENTIAL GTH-PBE-q5
       &POTENTIAL
 2 3
  0.2837905100000000E+00 2 -0.1241522559000000E+02  0.1868095920000000E+01
 2
  0.2554050000000000E+00 1  0.1363026257000000E+02
  0.2454945300000000E+00 0
         # Potential name:  GTH-PBE-Q5  for symbol:  N
         # Potential read from the potential filename: ./GR
       &END POTENTIAL
     &END KIND
     &KIND H
       BASIS_SET TZV2P-MOLOPT-GTH
       POTENTIAL GTH-PBE-q1
       &POTENTIAL
 1
  0.2000000000000000E+00 2 -0.4178900440000000E+01  0.7244633100000000E+00
 0
         # Potential name:  GTH-PBE-Q1  for symbol:  H
         # Potential read from the potential filename: ./GR
       &END POTENTIAL
     &END KIND
     &TOPOLOGY
       COORD_FILE_NAME ./12units_7agnr_defect_N.xyz
       COORD_FILE_FORMAT  XYZ
       NUMBER_OF_ATOMS  224
       MULTIPLE_UNIT_CELL  1 1 1
       &CENTER_COORDINATES  T
       &END CENTER_COORDINATES
     &END TOPOLOGY
   &END SUBSYS
 &END FORCE_EVAL
