 # Version information for this restart file 
 # current date 2020-09-04 12:19:34.767
 # current working dir /scratch/snx3000/bhubmann/run_5/cp2k_vibr_12units_7agnr_defect_bite/geo
 # Program compiled at                              Wed Nov  6 21:00:18 CET 2019
 # Program compiled on                                                  daint105
 # Program compiled for                         CP2K-6.1-CrayGNU-19.10-cuda-10.1
 # Source code revision number                                         svn:18464
 &GLOBAL
   EXTENDED_FFT_LENGTHS  T
   PRINT_LEVEL  LOW
   PROJECT_NAME PROJ
   RUN_TYPE  GEO_OPT
   WALLTIME 86000
 &END GLOBAL
 &MOTION
   &GEO_OPT
     OPTIMIZER  BFGS
     MAX_ITER  1600
     MAX_FORCE     5.0000000000000002E-05
     STEP_START_VAL  62
     &BFGS
       TRUST_RADIUS     5.2917720859000011E-02
     &END BFGS
   &END GEO_OPT
 &END MOTION
 &FORCE_EVAL
   METHOD  QS
   &DFT
     BASIS_SET_FILE_NAME ./BR
     POTENTIAL_FILE_NAME ./GR
     WFN_RESTART_FILE_NAME ./PROJ-RESTART.wfn
     &SCF
       MAX_SCF  20
       EPS_SCF     1.0000000000000001E-09
       SCF_GUESS  ATOMIC
       &OT  T
         MINIMIZER  CG
         PRECONDITIONER  FULL_SINGLE_INVERSE
       &END OT
       &OUTER_SCF  T
         EPS_SCF     1.0000000000000001E-09
         MAX_SCF  50
       &END OUTER_SCF
       &PRINT
         &RESTART  SILENT
           ADD_LAST  NUMERIC
           FILENAME RESTART
           &EACH
             QS_SCF  0
             GEO_OPT  1
           &END EACH
         &END RESTART
         &RESTART_HISTORY  OFF
         &END RESTART_HISTORY
       &END PRINT
     &END SCF
     &QS
       EPS_DEFAULT     1.0000000000000000E-14
       EXTRAPOLATION  ASPC
       EXTRAPOLATION_ORDER  3
       METHOD  GPW
     &END QS
     &MGRID
       NGRIDS  5
       CUTOFF     6.0000000000000000E+02
     &END MGRID
     &XC
       DENSITY_CUTOFF     1.0000000000000000E-10
       GRADIENT_CUTOFF     1.0000000000000000E-10
       TAU_CUTOFF     1.0000000000000000E-10
       &XC_FUNCTIONAL  NO_SHORTCUT
         &PADE  T
         &END PADE
       &END XC_FUNCTIONAL
     &END XC
   &END DFT
   &SUBSYS
     &CELL
       A     8.0000000000000014E+01    0.0000000000000000E+00    0.0000000000000000E+00
       B     0.0000000000000000E+00    2.5000000000000004E+01    0.0000000000000000E+00
       C     0.0000000000000000E+00    0.0000000000000000E+00    1.5000000000000002E+01
       MULTIPLE_UNIT_CELL  1 1 1
     &END CELL
     &COORD
C    1.5024992634905489E+01    9.9433176334463536E+00    7.4974762951617455E+00
C    1.5730272826270646E+01    8.7328926206816355E+00    7.4979015515719727E+00
C    1.7113407248754363E+01    8.7437254526930470E+00    7.4985274303599692E+00
C    1.7833479930321829E+01    9.9582239971088988E+00    7.4987187324430948E+00
C    1.9279079605955477E+01    9.9802163581769374E+00    7.4992618522496137E+00
C    2.0029246788753852E+01    8.7811217215745785E+00    7.4996569843280030E+00
C    2.1401483104855160E+01    8.7918441790384456E+00    7.5000714570009066E+00
C    2.2128679333746430E+01    1.0005206802360227E+01    7.5000729360589764E+00
C    2.3567748671244765E+01    1.0015293136240842E+01    7.5003919611372893E+00
C    2.4315800749711272E+01    8.8125067963095525E+00    7.5007114331819080E+00
C    2.5687557367410577E+01    8.8203496616280344E+00    7.5008289319413288E+00
C    2.6420740769172060E+01    1.0032177093191928E+01    7.5007013091049295E+00
C    2.7858758290152799E+01    1.0040363319171854E+01    7.5006716694528244E+00
C    2.8606589851744534E+01    8.8362058923446192E+00    7.5008121498227611E+00
C    2.9977807376484606E+01    8.8420523030629887E+00    7.5007144817552955E+00
C    3.0714791482539233E+01    1.0053090129589606E+01    7.5004767931187377E+00
C    3.2150771990296704E+01    1.0058961507313837E+01    7.5003408442829524E+00
C    3.2904643734174854E+01    8.8501920300714385E+00    7.5002998507998688E+00
C    3.4273916531039340E+01    8.8594951896475642E+00    7.5001771765869396E+00
C    3.4996312940448853E+01    1.0084365973735659E+01    7.5000779400912396E+00
C    3.6399154559797914E+01    1.0104148227348055E+01    7.4999712282308444E+00
C    3.9315729828279899E+01    1.0104617197382536E+01    7.4997849311650739E+00
C    4.0718665461662503E+01    1.0085376397015530E+01    7.4997553682636520E+00
C    4.1441930210257695E+01    8.8609193857201678E+00    7.4997248277072375E+00
C    4.2811306441933276E+01    8.8523103658381146E+00    7.4997382595263904E+00
C    4.3564559490779743E+01    1.0061472642445626E+01    7.4997007658375008E+00
C    4.5000664708049776E+01    1.0056624617352224E+01    7.4997408332339051E+00
C    4.5739187606941002E+01    8.8463658622593346E+00    7.4997629265210408E+00
C    4.7110589158706993E+01    8.8417570510641035E+00    7.4997953037759624E+00
C    4.7857587168041832E+01    1.0046525241631446E+01    7.4997741884789368E+00
C    4.9295750080969611E+01    1.0040046311552643E+01    7.4998191015359970E+00
C    5.0031890868248738E+01    8.8295291423848479E+00    7.4999131626927324E+00
C    5.1403901263809935E+01    8.8235662918567250E+00    7.4999834693480532E+00
C    5.2150677927430003E+01    1.0027465819094310E+01    7.5000041933020167E+00
C    5.3589525735417027E+01    1.0021105307382005E+01    7.5001409881754446E+00
C    5.4324852219227211E+01    8.8107174004078139E+00    7.5003368744513663E+00
C    5.5696963355910334E+01    8.8051495588140796E+00    7.5005977755281217E+00
C    5.6443258025885299E+01    1.0009005016442108E+01    7.5006473153384796E+00
C    5.7882760159165656E+01    1.0002064955939575E+01    7.5010365540496231E+00
C    5.8613108389964658E+01    8.7905709516660071E+00    7.5014517625649662E+00
C    5.9985531886925124E+01    8.7832048420563087E+00    7.5018879473685551E+00
C    6.0732958544544040E+01    9.9840388829646631E+00    7.5019656242692569E+00
C    6.2178724860203808E+01    9.9658658961314970E+00    7.5025800197163584E+00
C    6.2902060369500461E+01    8.7533289737229705E+00    7.5032596940076113E+00
C    6.4285288131829986E+01    8.7462307987782388E+00    7.5039065773850000E+00
C    6.4987331455335777E+01    9.9585129295219801E+00    7.5039223196050244E+00
C    1.4893652149326483E+01    1.2424462298818296E+01    7.4968315719836287E+00
C    1.5695357955159098E+01    1.1159057812078991E+01    7.4976050059265944E+00
C    1.7114203012171011E+01    1.1189626330614443E+01    7.4982833367643886E+00
C    1.7828992388890047E+01    1.2443326789853018E+01    7.4984788655115473E+00
C    1.9238334298388615E+01    1.2452498852084570E+01    7.4989841771111028E+00
C    1.9973195560130591E+01    1.1215750287381022E+01    7.4993501824233322E+00
C    2.1406324127699037E+01    1.1229060607138710E+01    7.4997830497497464E+00
C    2.2119131901447069E+01    1.2470940750863145E+01    7.4998127288906682E+00
C    2.3538925799507307E+01    1.2479830584745041E+01    7.5001152933195456E+00
C    2.4268913163174183E+01    1.1248594229377058E+01    7.5003308842181413E+00
C    2.5702231124290126E+01    1.1257496156346491E+01    7.5004643446453816E+00
C    2.6414938485182315E+01    1.2497209930123320E+01    7.5004081714412472E+00
C    2.7835177080796232E+01    1.2505527834541663E+01    7.5004452926353720E+00
C    2.8562235837689105E+01    1.1273218286720171E+01    7.5005144117448239E+00
C    2.9995639810129642E+01    1.1281017802463298E+01    7.5004392210646396E+00
C    3.0704434887686222E+01    1.2521796944167379E+01    7.5003261066090747E+00
C    3.2123511634090200E+01    1.2529728989797135E+01    7.5002107251635808E+00
C    3.2845813671316293E+01    1.1297263594960350E+01    7.5002198686456181E+00
C    3.4274474294155979E+01    1.1312343282957739E+01    7.5000788833045391E+00
C    3.4994957331224796E+01    1.2537194085034846E+01    7.5000154101995307E+00
C    3.6418714303385144E+01    1.2531589791289839E+01    7.4998918756777089E+00
C    3.7126709891540550E+01    1.1289475642946263E+01    7.4998947392236976E+00
C    3.8587456228754654E+01    1.1289631507687377E+01    7.4998086495948098E+00
C    3.9294719896950220E+01    1.2532068249721362E+01    7.4997559751082203E+00
C    4.0718468874505533E+01    1.2538221437345969E+01    7.4996825439880848E+00
C    4.1439758662809353E+01    1.1313745394982385E+01    7.4997137380463466E+00
C    4.2868499745665076E+01    1.1299341750615609E+01    7.4996938594855518E+00
C    4.3589764791838782E+01    1.2532324828829502E+01    7.4996537868734361E+00
C    4.5008833621137811E+01    1.2525394219769545E+01    7.4996393696583992E+00
C    4.5718808779907690E+01    1.1285194573971760E+01    7.4996872578751717E+00
C    4.7152331185030192E+01    1.1278737256237934E+01    7.4997210292821377E+00
C    4.7877699165733524E+01    1.2511942246581171E+01    7.4996396164241270E+00
C    4.9298030835585251E+01    1.2505407664541831E+01    7.4996996657902493E+00
C    5.0012235298963219E+01    1.1266449185201779E+01    7.4997868168817234E+00
C    5.1445571374058247E+01    1.1259768319277367E+01    7.4998506673282614E+00
C    5.2171194775402221E+01    1.2492389411463867E+01    7.4998168746720770E+00
C    5.3591347350048267E+01    1.2486018669653628E+01    7.4999181069961889E+00
C    5.4306179551820613E+01    1.1247288111236740E+01    7.5001433014201009E+00
C    5.5739635515765094E+01    1.1241023547186739E+01    7.5003935133261956E+00
C    5.6467348423328147E+01    1.2473670293993981E+01    7.5003482230217031E+00
C    5.7887092860914052E+01    1.2467901065594605E+01    7.5006594561295126E+00
C    5.8602563428926906E+01    1.1227535585087351E+01    7.5010469610569794E+00
C    6.0035790095662840E+01    1.1217847721150012E+01    7.5015029662654138E+00
C    6.0767736460311788E+01    1.2456471106121146E+01    7.5014731264749432E+00
C    6.2177047700312649E+01    1.2451032846656709E+01    7.5020469683453701E+00
C    6.2894860328524281E+01    1.1199153686079301E+01    7.5026228499281729E+00
C    6.4313737837423730E+01    1.1172416680616516E+01    7.5033327675405470E+00
C    6.5112313477941782E+01    1.2439834480720211E+01    7.5038519215226698E+00
C    1.4993282613122270E+01    1.4906915482745193E+01    7.4971879180794279E+00
C    1.5679275258048371E+01    1.3699965436144643E+01    7.4974588863574656E+00
C    1.7098363310151896E+01    1.3687784236322548E+01    7.4981452896332241E+00
C    1.7801692538843220E+01    1.4928426092215357E+01    7.4983746785610093E+00
C    1.9247590702091927E+01    1.4925263207507625E+01    7.4989203917452221E+00
C    1.9957397665818597E+01    1.3698655159057289E+01    7.4991778811346563E+00
C    2.1390629944646228E+01    1.3703800516957150E+01    7.4995908343675008E+00
C    2.2097554838371050E+01    1.4936609530085939E+01    7.4997454091568549E+00
C    2.3537089284699050E+01    1.4944588650126333E+01    7.5000375025449539E+00
C    2.4253750649899843E+01    1.3719993610435559E+01    7.5001626197093652E+00
C    2.5687106126925833E+01    1.3728871973263306E+01    7.5003260516210704E+00
C    2.6390408713735962E+01    1.4962617484110579E+01    7.5003665206082655E+00
C    2.7829556666392076E+01    1.4971806619066475E+01    7.5004137872167442E+00
C    2.8547133623214066E+01    1.3746499241736267E+01    7.5003833259156565E+00
C    2.9979650526407454E+01    1.3755363925056894E+01    7.5003248223265944E+00
C    3.0684907317836508E+01    1.4988082668663706E+01    7.5002968822149887E+00
C    3.2125597967432945E+01    1.4995908579808674E+01    7.5001807138467811E+00
C    3.2840873070031606E+01    1.3767884969277109E+01    7.5001435481617120E+00
C    3.4272948372763842E+01    1.3774831197867321E+01    7.5000187615518739E+00
C    3.4983042026357985E+01    1.5001523215692673E+01    7.4999369856160767E+00
C    3.6427832077293445E+01    1.4997930502500711E+01    7.4998317489681021E+00
C    3.7138893339260328E+01    1.3769925033817104E+01    7.4998276514676245E+00
C    3.8573812984269011E+01    1.3770098645694979E+01    7.4997377137623236E+00
C    3.9284103346610877E+01    1.4998423477175809E+01    7.4996527389325491E+00
C    4.0728786431646746E+01    1.5002567495603767E+01    7.4995829758261596E+00
C    4.1439558486368895E+01    1.3776251034811819E+01    7.4996475994789442E+00
C    4.2871534902663427E+01    1.3770004405898989E+01    7.4995765529589891E+00
C    4.3585656992534346E+01    1.4998548499686850E+01    7.4994999471757140E+00
C    4.5026097211186666E+01    1.4991791460414477E+01    7.4994782831727616E+00
C    4.5732250526427876E+01    1.3759657335910958E+01    7.4995504432842557E+00
C    4.7164645396317674E+01    1.3752208321287695E+01    7.4995760305912809E+00
C    4.7880637308035759E+01    1.4978591327479831E+01    7.4994227311721984E+00
C    4.9319401188545413E+01    1.4971354400046735E+01    7.4994483072521847E+00
C    5.0023642543332912E+01    1.3738393741571755E+01    7.4995735461657098E+00
C    5.1456687069052244E+01    1.3731514826114950E+01    7.4996226123997500E+00
C    5.2172847478114171E+01    1.4957422299485890E+01    7.4995046871671027E+00
C    5.3611451078883377E+01    1.4950793098509791E+01    7.4995523587659445E+00
C    5.4317031164586609E+01    1.3718472897342760E+01    7.4998523942938062E+00
C    5.5750215834661063E+01    1.3712386278993472E+01    7.5000155905466706E+00
C    5.6464055252643242E+01    1.4938451282267394E+01    7.4999018293551849E+00
C    5.7903240136168016E+01    1.4933675954633513E+01    7.5001269287306398E+00
C    5.8612752616141456E+01    1.3702436602642544E+01    7.5005766416848774E+00
C    6.0045848631488973E+01    1.3700869365144520E+01    7.5009403173489995E+00
C    6.0752529836408506E+01    1.4929277693659877E+01    7.5007565997552454E+00
C    6.2198242096111230E+01    1.4936205028849185E+01    7.5011178844434019E+00
C    6.2904605054435535E+01    1.3697358692257742E+01    7.5019046932917473E+00
C    6.4323624981850585E+01    1.3713381790356829E+01    7.5024964859338770E+00
C    6.5006514762405388E+01    1.4922136383715589E+01    7.5022061487402167E+00
C    1.5682792832636853E+01    1.6126368441691589E+01    7.4974556176805711E+00
C    1.7065981058558084E+01    1.6133430952616955E+01    7.4980582052469407E+00
C    1.9982517472178525E+01    1.6133757020392441E+01    7.4991113234323512E+00
C    2.1354889124317051E+01    1.6140523552904217E+01    7.4995135619465945E+00
C    2.4270401781790010E+01    1.6156105169355193E+01    7.5002043974017409E+00
C    2.5642603586862972E+01    1.6165008011115372E+01    7.5003545694290867E+00
C    2.8564219233699276E+01    1.6182507546079695E+01    7.5004341015533793E+00
C    2.9937113439036374E+01    1.6190375097712295E+01    7.5003780131398337E+00
C    3.2864825437763336E+01    1.6202105045876142E+01    7.5000886860424343E+00
C    3.4239869170256704E+01    1.6205388584079728E+01    7.4999882739496169E+00
C    3.7168727974537568E+01    1.6203627349658468E+01    7.4997205929307631E+00
C    3.8542698912070080E+01    1.6203845283557598E+01    7.4996360007804332E+00
C    4.1471004360614941E+01    1.6206911970875225E+01    7.4994869543869775E+00
C    4.2845882318315653E+01    1.6204368359275716E+01    7.4994416630926715E+00
C    4.5772331693078719E+01    1.6194985997472845E+01    7.4993317935142478E+00
C    4.7144993235340124E+01    1.6188623689823693E+01    7.4993342339450217E+00
C    5.0065928384907984E+01    1.6174855676578119E+01    7.4992789059968805E+00
C    5.1438000233176673E+01    1.6168125795275461E+01    7.4992973666872524E+00
C    5.4356621789615531E+01    1.6154846332769679E+01    7.4993971612116246E+00
C    5.5728553351452383E+01    1.6148654217416492E+01    7.4995258462642926E+00
C    5.8642738607592960E+01    1.6139489024166128E+01    7.5000072676536931E+00
C    6.0014960306181820E+01    1.6136101054968581E+01    7.5002773201140505E+00
C    6.2930686558387798E+01    1.6143198619923407E+01    7.5008348379175445E+00
C    6.4313839439101400E+01    1.6139770426114385E+01    7.5012879192472699E+00
H    1.5127257915598578E+01    1.7073954223658340E+01    7.4971656253893926E+00
H    1.7592160186804190E+01    1.7095755904611956E+01    7.4981852998741951E+00
H    1.9451858579489656E+01    1.7093708174601119E+01    7.4989127835545029E+00
H    2.1876750320457550E+01    1.7105211749649367E+01    7.4996231166120300E+00
H    2.3738918486018324E+01    1.7115586944116920E+01    7.5001734787180423E+00
H    2.6162467482004871E+01    1.7130940234800459E+01    7.5004528759891658E+00
H    2.8033216945082494E+01    1.7142393688768436E+01    7.5004968216711605E+00
H    3.0457897153971590E+01    1.7155982822630722E+01    7.5004038483199134E+00
H    3.2337786177558954E+01    1.7164375058786955E+01    7.5001210797759770E+00
H    3.4762674604352796E+01    1.7169976964485478E+01    7.4999217643510310E+00
H    3.6642725251256536E+01    1.7166428818525304E+01    7.4997040170521325E+00
H    3.9068330844189873E+01    1.7166838375983080E+01    7.4995443742319496E+00
H    4.0947576916068726E+01    1.7171135995475016E+01    7.4994360557170152E+00
H    4.3372414909654488E+01    1.7166874649711726E+01    7.4993514644420776E+00
H    4.5250419217126826E+01    1.7159936958980911E+01    7.4992392673765158E+00
H    4.7675112506503062E+01    1.7148955301006065E+01    7.4992162657343044E+00
H    4.9544654816439902E+01    1.7140003109239558E+01    7.4991370404562874E+00
H    5.1968469664174876E+01    1.7128202024665704E+01    7.4991792495250795E+00
H    5.3834936075241451E+01    1.7119711693593395E+01    7.4991203441824501E+00
H    5.6258123089998797E+01    1.7109147843106339E+01    7.4993836024895515E+00
H    5.8118420857926424E+01    1.7102807711010009E+01    7.4996755699129718E+00
H    6.0543315303983960E+01    1.7097291261200631E+01    7.5001898017538888E+00
H    6.2401985301153744E+01    1.7104141531676017E+01    7.5001851812055760E+00
H    6.4866788409801131E+01    1.7088885737354275E+01    7.5010535478863307E+00
H    1.5187119613673133E+01    7.7781360356375036E+00    7.4977290209344343E+00
H    1.7651946959757929E+01    7.7882561749469588E+00    7.4988013453802997E+00
H    1.9510841535283518E+01    7.8145186810455680E+00    7.4996281660022959E+00
H    2.1935576247863931E+01    7.8339214511859847E+00    7.5003327346017956E+00
H    2.3796029611844808E+01    7.8466756471674488E+00    7.5008303078340974E+00
H    2.6219093939634714E+01    7.8608983110616570E+00    7.5010794053364798E+00
H    2.8085273408238514E+01    7.8711072944350065E+00    7.5009917012507534E+00
H    3.0508322144110206E+01    7.8819150739217321E+00    7.5008198449879178E+00
H    3.2381307162307984E+01    7.8859984086004280E+00    7.5003790080900901E+00
H    3.4839323550587743E+01    7.9160375370728397E+00    7.5001507985326334E+00
H    4.0877095800766995E+01    7.9171108102880057E+00    7.4997406298438785E+00
H    4.3335125995289928E+01    7.8883501033398931E+00    7.4997161895907620E+00
H    4.5209695840576821E+01    7.8856252690865389E+00    7.4997866330418423E+00
H    4.7632845471707945E+01    7.8771111966551048E+00    7.4998279888735278E+00
H    4.9501946033200902E+01    7.8691241441305442E+00    7.4999180385677437E+00
H    5.1925379115472694E+01    7.8585064591865530E+00    7.5000700412269588E+00
H    5.3794925449858290E+01    7.8502920936023957E+00    7.5003099149498125E+00
H    5.6218299830449951E+01    7.8400956926834136E+00    7.5007603836406158E+00
H    5.8081378019608209E+01    7.8312672828691579E+00    7.5014587747603443E+00
H    6.0506285440932331E+01    7.8178410987360616E+00    7.5022426819339421E+00
H    6.2366102617549458E+01    7.7964052014694865E+00    7.5033444924269235E+00
H    6.4831062689539095E+01    7.7929817113830220E+00    7.5044908367791070E+00
H    1.3892650177662508E+01    1.4894697911564096E+01    7.4966180891476322E+00
H    6.5792554343589416E+01    1.2436967519295619E+01    6.6239273156096390E+00
H    1.4215538727206592E+01    1.2420108421027621E+01    6.6152364017551664E+00
H    1.4213689386793716E+01    1.2420194304977617E+01    8.3769806249105461E+00
H    1.3924302466697135E+01    9.9411382871231613E+00    7.4969005437826164E+00
H    6.5790134816718933E+01    1.2437538417105896E+01    8.3856737921638196E+00
H    6.6107165243500418E+01    1.4912921703427566E+01    7.5027035002894058E+00
H    6.6088027418974576E+01    9.9593959107191257E+00    7.5045310438968329E+00
H    3.8799597493033303E+01    9.1343652563445215E+00    7.4998189510593285E+00
H    3.6915662366325598E+01    9.1341034669878720E+00    7.4999703027532520E+00
     &END COORD
     &KIND C
       BASIS_SET TZV2P-MOLOPT-GTH
       POTENTIAL GTH-PBE-q4
       &POTENTIAL
 2 2
  0.3384712400000000E+00 2 -0.8803673979999999E+01  0.1339210850000000E+01
 2
  0.3025757500000000E+00 1  0.9622486650000001E+01
  0.2915069400000000E+00 0
         # Potential name:  GTH-PBE-Q4  for symbol:  C
         # Potential read from the potential filename: ./GR
       &END POTENTIAL
     &END KIND
     &KIND H
       BASIS_SET TZV2P-MOLOPT-GTH
       POTENTIAL GTH-PBE-q1
       &POTENTIAL
 1
  0.2000000000000000E+00 2 -0.4178900440000000E+01  0.7244633100000000E+00
 0
         # Potential name:  GTH-PBE-Q1  for symbol:  H
         # Potential read from the potential filename: ./GR
       &END POTENTIAL
     &END KIND
     &TOPOLOGY
       COORD_FILE_NAME ./12units_7agnr_defect_bite.xyz
       COORD_FILE_FORMAT  XYZ
       NUMBER_OF_ATOMS  222
       MULTIPLE_UNIT_CELL  1 1 1
       &CENTER_COORDINATES  T
       &END CENTER_COORDINATES
     &END TOPOLOGY
   &END SUBSYS
 &END FORCE_EVAL
