 # Version information for this restart file 
 # current date 2020-08-25 11:42:09.868
 # current working dir /scratch/snx3000/bhubmann/run_3/cp2k_vibr_12units_7agnr/geo
 # Program compiled at                              Wed Nov  6 21:00:18 CET 2019
 # Program compiled on                                                  daint105
 # Program compiled for                         CP2K-6.1-CrayGNU-19.10-cuda-10.1
 # Source code revision number                                         svn:18464
 &GLOBAL
   EXTENDED_FFT_LENGTHS  T
   PRINT_LEVEL  LOW
   PROJECT_NAME PROJ
   RUN_TYPE  GEO_OPT
   WALLTIME 86000
 &END GLOBAL
 &MOTION
   &GEO_OPT
     OPTIMIZER  BFGS
     MAX_ITER  1600
     MAX_FORCE     5.0000000000000002E-05
     STEP_START_VAL  23
     &BFGS
       TRUST_RADIUS     5.2917720859000011E-02
     &END BFGS
   &END GEO_OPT
 &END MOTION
 &FORCE_EVAL
   METHOD  QS
   &DFT
     BASIS_SET_FILE_NAME ./BR
     POTENTIAL_FILE_NAME ./GR
     WFN_RESTART_FILE_NAME ./PROJ-RESTART.wfn
     &SCF
       MAX_SCF  20
       EPS_SCF     1.0000000000000001E-09
       SCF_GUESS  ATOMIC
       &OT  T
         MINIMIZER  CG
         PRECONDITIONER  FULL_SINGLE_INVERSE
       &END OT
       &OUTER_SCF  T
         EPS_SCF     1.0000000000000001E-09
         MAX_SCF  50
       &END OUTER_SCF
       &PRINT
         &RESTART  SILENT
           ADD_LAST  NUMERIC
           FILENAME RESTART
           &EACH
             QS_SCF  0
             GEO_OPT  1
           &END EACH
         &END RESTART
         &RESTART_HISTORY  OFF
         &END RESTART_HISTORY
       &END PRINT
     &END SCF
     &QS
       EPS_DEFAULT     1.0000000000000000E-14
       EXTRAPOLATION  ASPC
       EXTRAPOLATION_ORDER  3
       METHOD  GPW
     &END QS
     &MGRID
       NGRIDS  5
       CUTOFF     6.0000000000000000E+02
     &END MGRID
     &XC
       DENSITY_CUTOFF     1.0000000000000000E-10
       GRADIENT_CUTOFF     1.0000000000000000E-10
       TAU_CUTOFF     1.0000000000000000E-10
       &XC_FUNCTIONAL  NO_SHORTCUT
         &PADE  T
         &END PADE
       &END XC_FUNCTIONAL
     &END XC
   &END DFT
   &SUBSYS
     &CELL
       A     8.0000000000000014E+01    0.0000000000000000E+00    0.0000000000000000E+00
       B     0.0000000000000000E+00    2.5000000000000004E+01    0.0000000000000000E+00
       C     0.0000000000000000E+00    0.0000000000000000E+00    1.5000000000000002E+01
       MULTIPLE_UNIT_CELL  1 1 1
     &END CELL
     &COORD
C    1.5005117602512268E+01    1.0017451180025184E+01    7.5013511824669470E+00
C    1.5702483404342502E+01    8.8024670545979262E+00    7.5010121631418372E+00
C    1.7085709727641376E+01    8.8043749078913773E+00    7.5006074839652017E+00
C    1.7813578152334507E+01    1.0014177523332204E+01    7.5004953880957972E+00
C    1.9259351833145221E+01    1.0026763840174262E+01    7.5002057055730926E+00
C    2.0001915366508705E+01    8.8229144768616248E+00    7.4998547036485101E+00
C    2.1374257515649013E+01    8.8249619776609922E+00    7.4996464105431953E+00
C    2.2109132599441423E+01    1.0033681778915376E+01    7.4997111481358276E+00
C    2.3548507835634517E+01    1.0034825883510765E+01    7.4995375166490659E+00
C    2.4289460475488479E+01    8.8277835984889972E+00    7.4992402267651963E+00
C    2.5661498070491486E+01    8.8274918603531116E+00    7.4991654309705931E+00
C    2.6401714568055390E+01    1.0034726340671522E+01    7.4993477635136534E+00
C    2.7840505347720971E+01    1.0034622557065264E+01    7.4993788989322301E+00
C    2.8581561336231708E+01    8.8274525523693104E+00    7.4991645955025916E+00
C    2.9953692976700690E+01    8.8273066570671919E+00    7.4992126842569782E+00
C    3.0694789245976764E+01    1.0034431857590086E+01    7.4994700674293702E+00
C    3.2133459891287124E+01    1.0034464095815558E+01    7.4995313999796585E+00
C    3.2874550168420193E+01    8.8273075030252102E+00    7.4994580535984392E+00
C    3.4246661835494429E+01    8.8272820570169124E+00    7.4995419824499487E+00
C    3.4987796335733400E+01    1.0034441387420546E+01    7.4997371593650604E+00
C    3.6426457392723776E+01    1.0034512437041581E+01    7.4998029191311719E+00
C    3.7167562272275042E+01    8.8273574482258130E+00    7.4997759137324742E+00
C    3.8539639291508948E+01    8.8273617379159877E+00    7.4998301426426819E+00
C    3.9280732161293095E+01    1.0034538557477735E+01    7.4999331789726362E+00
C    4.0719398040781321E+01    1.0034578768373148E+01    7.4999931946117417E+00
C    4.1460557359867707E+01    8.8274430522764522E+00    7.4998837912283554E+00
C    4.2832634315887255E+01    8.8275144380770101E+00    7.4998950987902084E+00
C    4.3573673264692992E+01    1.0034710143502000E+01    7.4999886560661473E+00
C    4.5012334930891690E+01    1.0034720159811636E+01    7.4999771436443794E+00
C    4.5753538157459836E+01    8.8276031458267692E+00    7.4998118629504349E+00
C    4.7125649853385646E+01    8.8277064944020918E+00    7.4997956831230841E+00
C    4.7866672343045813E+01    1.0034904698782785E+01    7.4998864445481885E+00
C    4.9305342442908859E+01    1.0034955501610062E+01    7.4998327544216696E+00
C    5.0046507981655516E+01    8.8278738802981849E+00    7.4996170192257852E+00
C    5.1418639479412469E+01    8.8280990074556840E+00    7.4995342251508292E+00
C    5.2159625791736438E+01    1.0035311318862052E+01    7.4996484458050690E+00
C    5.3598414845489913E+01    1.0035498172669467E+01    7.4995504275606724E+00
C    5.4338695474947649E+01    8.8283053820698161E+00    7.4992048475204225E+00
C    5.5710732117682269E+01    8.8286719402405396E+00    7.4990384216339505E+00
C    5.6451617169066857E+01    1.0035753775924391E+01    7.4992420266386910E+00
C    5.7890990993255606E+01    1.0034685289406033E+01    7.4989991614950062E+00
C    5.8625925804239969E+01    8.8260037181162456E+00    7.4985252850147752E+00
C    5.9998266508683201E+01    8.8240272458768381E+00    7.4982962299273010E+00
C    6.0740768555817795E+01    1.0027911580357134E+01    7.4985685601117957E+00
C    6.2186541739854270E+01    1.0015386680061479E+01    7.4983127257898250E+00
C    6.2914469207271729E+01    8.8056167700754777E+00    7.4976820337069112E+00
C    6.4297694974260665E+01    8.8037766074495600E+00    7.4973165717278425E+00
C    6.4994999017028647E+01    1.0018798991860747E+01    7.4975060381551568E+00
C    1.4889579774818404E+01    1.2499329536410944E+01    7.5016977709824797E+00
C    1.5683283843124038E+01    1.1228839803634955E+01    7.5012413391780255E+00
C    1.7102266562607497E+01    1.1250234796405564E+01    7.5008563763761709E+00
C    1.7824961610392606E+01    1.2499401087179368E+01    7.5007906577449264E+00
C    1.9234288527559084E+01    1.2499431999366406E+01    7.5005236882592836E+00
C    1.9961247182442410E+01    1.1257882858813495E+01    7.5001964264221961E+00
C    2.1394430453269912E+01    1.1261993110264081E+01    7.4999931308365602E+00
C    2.2114948504873954E+01    1.2499504761615066E+01    7.5000619537010182E+00
C    2.3534734437976070E+01    1.2499541971724611E+01    7.4999028333544642E+00
C    2.4257218115145221E+01    1.1263856115544778E+01    7.4996865480893167E+00
C    2.5690558825602356E+01    1.1263955554762624E+01    7.4996211973090920E+00
C    2.6410710813921479E+01    1.2499621262049846E+01    7.4996921960875795E+00
C    2.7830865494035876E+01    1.2499662107201353E+01    7.4997290688835063E+00
C    2.8550961583759108E+01    1.1263805395453216E+01    7.4995480113333972E+00
C    2.9984156716536813E+01    1.1263807279901934E+01    7.4995727565030927E+00
C    3.0703975588533872E+01    1.2499745782953484E+01    7.4997899973756548E+00
C    3.2124222430040597E+01    1.2499786905223974E+01    7.4998024434302311E+00
C    3.2844043441414790E+01    1.1263841875053300E+01    7.4997306658737868E+00
C    3.4277243827531990E+01    1.1263857488674814E+01    7.4998088565257675E+00
C    3.4997005556519426E+01    1.2499867673346861E+01    7.4999644642806693E+00
C    3.6417274601482902E+01    1.2499907858113851E+01    7.5000331280799877E+00
C    3.7137006271132329E+01    1.1263928671794243E+01    7.4999706489052809E+00
C    3.8570196642292046E+01    1.1263957932846084E+01    7.5000307718283787E+00
C    3.9289872538212798E+01    1.2499987250610195E+01    7.5001537787133126E+00
C    4.0710121768691941E+01    1.2500026679823382E+01    7.5002154085538102E+00
C    4.1429865932535684E+01    1.1264037246227577E+01    7.5000893423132098E+00
C    4.2863056402543151E+01    1.1264086955775332E+01    7.5000956340221911E+00
C    4.3582719699814767E+01    1.2500105743017663E+01    7.5002673399294641E+00
C    4.5002988744010125E+01    1.2500145630056810E+01    7.5002418643899951E+00
C    4.5722818865591748E+01    1.1264176255799541E+01    7.5000849427540048E+00
C    4.7156019449181692E+01    1.1264241606144269E+01    7.5000732601513835E+00
C    4.7875771932180598E+01    1.2500225665037304E+01    7.5002263952241268E+00
C    4.9296018755445779E+01    1.2500266379507201E+01    7.5001920902561583E+00
C    5.0015906257787805E+01    1.1264370830159939E+01    7.4999913912033822E+00
C    5.1449100879524188E+01    1.1264453236839014E+01    7.4999270842868935E+00
C    5.2169128739115457E+01    1.2500349333204653E+01    7.5000877734428499E+00
C    5.3589283384633383E+01    1.2500389686125541E+01    7.5000520271824334E+00
C    5.4309502598015733E+01    1.1264765761211818E+01    7.4997192306118086E+00
C    5.5742841575782634E+01    1.1264745237152162E+01    7.4995822299575714E+00
C    5.6465259654588891E+01    1.2500468071710275E+01    7.4998225411087258E+00
C    5.7885045575520614E+01    1.2500504874965726E+01    7.4996797464631841E+00
C    5.8605628940626502E+01    1.1263032198683872E+01    7.4992692504114409E+00
C    6.0038810728686656E+01    1.1258993473456661E+01    7.4990764273534793E+00
C    6.0765705587765332E+01    1.2500576396970812E+01    7.4992571983500538E+00
C    6.2175032554201053E+01    1.2500606492741710E+01    7.4990731280444534E+00
C    6.2897790341114025E+01    1.1251475960141857E+01    7.4984886593315050E+00
C    6.4316772421966149E+01    1.1230151711745739E+01    7.4981790145285325E+00
C    6.5110414524253983E+01    1.2500676889660365E+01    7.4982854391321974E+00
C    1.5004993918417744E+01    1.4981207432498406E+01    7.5020329279729907E+00
C    1.5683221381936274E+01    1.3769855074611042E+01    7.5015716164957471E+00
C    1.7102203441151161E+01    1.3748531481127491E+01    7.5011703201188089E+00
C    1.7813451233227941E+01    1.4984621282735727E+01    7.5011579993104114E+00
C    1.9259224460592641E+01    1.4972097059182646E+01    7.5008062450554114E+00
C    1.9961182792717288E+01    1.3741015343154391E+01    7.5005324691415982E+00
C    2.1394364617946302E+01    1.3736977213429387E+01    7.5002870662415724E+00
C    2.2109002223582447E+01    1.4965324353207111E+01    7.5003207861866112E+00
C    2.3548376126464643E+01    1.4964256376814388E+01    7.5001414461580893E+00
C    2.4257152097093243E+01    1.3735265084796509E+01    7.4999548839783330E+00
C    2.5690491134427859E+01    1.3735244980209318E+01    7.4999105572724973E+00
C    2.6401578562142497E+01    1.4964512791521408E+01    7.4998752204368957E+00
C    2.7840367668469870E+01    1.4964700057341943E+01    7.4999051242976247E+00
C    2.8550893071971654E+01    1.3735558382375197E+01    7.4998010610435593E+00
C    2.9984087739269331E+01    1.3735641193224614E+01    7.4998179107367822E+00
C    3.0694651203153658E+01    1.4965056746772026E+01    7.4999607450891279E+00
C    3.2133321382862185E+01    1.4965107914194677E+01    7.5000164211105700E+00
C    3.2843974620745918E+01    1.3735771186056452E+01    7.4999617333478845E+00
C    3.4277175245155348E+01    1.3735836943773746E+01    7.5000568303441710E+00
C    3.4987658962226668E+01    1.4965293205911573E+01    7.5001998778720402E+00
C    3.6426320731639350E+01    1.4965303541993407E+01    7.5002914881726177E+00
C    3.7136937759814465E+01    1.3735926792509339E+01    7.5002116139937201E+00
C    3.8570128288475232E+01    1.3735976653026485E+01    7.5002710569320010E+00
C    3.9280596190535931E+01    1.4965435161154408E+01    7.5004615768868277E+00
C    4.0719262169763603E+01    1.4965475375175574E+01    7.5005130179839137E+00
C    4.1429797747727278E+01    1.3736055984548774E+01    7.5003761884674498E+00
C    4.2862988180803541E+01    1.3736085086638973E+01    7.5003821479940314E+00
C    4.3573537260091214E+01    1.4965501233033338E+01    7.5005992079521002E+00
C    4.5012198397043051E+01    1.4965571898007074E+01    7.5006395872299620E+00
C    4.5722750739828150E+01    1.3736155664004903E+01    7.5004181307601785E+00
C    4.7155951150394685E+01    1.3736170909255334E+01    7.5004504536569083E+00
C    4.7866534972960544E+01    1.4965548546242339E+01    7.5006358016098424E+00
C    4.9305205667260346E+01    1.4965580348810523E+01    7.5006823748760834E+00
C    5.0015837904314175E+01    1.3736204756231960E+01    7.5004042742114123E+00
C    5.1449033035160532E+01    1.3736206271540762E+01    7.5003980366837304E+00
C    5.2159489655274996E+01    1.4965388895096844E+01    7.5006133014768510E+00
C    5.3598280476033445E+01    1.4965284710295395E+01    7.5005855050828050E+00
C    5.4309435726557354E+01    1.3736055219228206E+01    7.5002571694989610E+00
C    5.5742776446597091E+01    1.3736154169169593E+01    7.5001538476093224E+00
C    5.6451487214352582E+01    1.4965184127602761E+01    7.5004129691649135E+00
C    5.7890862470744594E+01    1.4966327778929641E+01    7.5002651527516235E+00
C    5.8605564186783866E+01    1.3738016219117078E+01    7.4998806444967316E+00
C    6.0038747501211354E+01    1.3742125855140120E+01    7.4997337926966203E+00
C    6.0740643461036441E+01    1.4973244530010735E+01    7.4998909184495046E+00
C    6.2186417190459636E+01    1.4985830078279989E+01    7.4996482950036230E+00
C    6.2897728125130278E+01    1.3749772416100699E+01    7.4991854902565551E+00
C    6.4316710877949774E+01    1.3771166850020359E+01    7.4988706547812685E+00
C    6.4994877877438896E+01    1.4982555031305754E+01    7.4989599603330648E+00
C    1.5702297216951790E+01    1.6196230273074768E+01    7.5020061236623468E+00
C    1.7085523085713763E+01    1.6194390917070155E+01    7.5015786404025206E+00
C    2.0001726112939558E+01    1.6175981755311344E+01    7.5008230299411283E+00
C    2.1374066837633851E+01    1.6174005684805476E+01    7.5005777545909282E+00
C    2.4289260818087900E+01    1.6171338476387202E+01    7.5000904677093079E+00
C    2.5661297506146155E+01    1.6171705404999560E+01    7.5000142804884167E+00
C    2.8581353650185360E+01    1.6171912578625328E+01    7.4999308418054325E+00
C    2.9953485187315131E+01    1.6172138121344286E+01    7.4999604521462677E+00
C    3.2874343605451998E+01    1.6172306300269909E+01    7.5001733999406426E+00
C    3.4246455335092065E+01    1.6172409994448259E+01    7.5002681960184496E+00
C    3.7167359686945993E+01    1.6172499282836625E+01    7.5005060687626903E+00
C    3.8539436703010338E+01    1.6172570823192515E+01    7.5005717636930793E+00
C    4.1460355310922516E+01    1.6172652069022799E+01    7.5007254487842436E+00
C    4.2832432403106736E+01    1.6172656278117408E+01    7.5007613104608035E+00
C    4.5753333207994153E+01    1.6172731035309585E+01    7.5008517936520764E+00
C    4.7125444914689069E+01    1.6172705285360465E+01    7.5009034580347080E+00
C    5.0046302299726150E+01    1.6172705327185042E+01    7.5009219470448478E+00
C    5.1418433954436580E+01    1.6172559061055921E+01    7.5009303439473394E+00
C    5.4338497413980861E+01    1.6172518942650814E+01    7.5008480789295815E+00
C    5.5710535021489299E+01    1.6172226687660267E+01    7.5007547656909646E+00
C    5.8625738191398149E+01    1.6175047220763741E+01    7.5004582108083619E+00
C    5.9998080372500979E+01    1.6177094196465692E+01    7.5002861610875007E+00
C    6.2914286213466347E+01    1.6195632312462198E+01    7.4997604794784909E+00
C    6.4297512596898130E+01    1.6197539408774329E+01    7.4994188300052373E+00
H    1.5152884028730657E+01    1.7147392111612245E+01    7.5023984835175952E+00
H    1.7617812222466714E+01    1.7153351496707870E+01    7.5016164235089571E+00
H    1.9477162463923680E+01    1.7139260495494010E+01    7.5010358506992141E+00
H    2.1902144019068807E+01    1.7135284989121104E+01    7.5006231502473080E+00
H    2.3763836305499616E+01    1.7134135151692824E+01    7.5001690425343250E+00
H    2.6187176203218204E+01    1.7134325946744994E+01    7.4999795997794152E+00
H    2.8055467722144755E+01    1.7134547786601257E+01    7.4999622425371424E+00
H    3.0479125921919866E+01    1.7134915494524261E+01    7.5000095160145150E+00
H    3.2348455312962130E+01    1.7134948122683287E+01    7.5002307025257142E+00
H    3.4772168653906860E+01    1.7135150806393092E+01    7.5003850725807180E+00
H    3.6641487529705543E+01    1.7135150604475324E+01    7.5006012940960121E+00
H    3.9065200507283357E+01    1.7135282025646333E+01    7.5007403755123185E+00
H    4.0934539239598315E+01    1.7135334624227266E+01    7.5008628515505968E+00
H    4.3358252469744350E+01    1.7135335829551746E+01    7.5009306556294009E+00
H    4.5227565415135771E+01    1.7135441706626683E+01    7.5010539715672646E+00
H    4.7651279939317327E+01    1.7135375872301285E+01    7.5010838421907735E+00
H    4.9520605501797704E+01    1.7135451654546316E+01    7.5011678315522499E+00
H    5.1944266036955824E+01    1.7135223479013192E+01    7.5011411984154153E+00
H    5.3812564881384233E+01    1.7135109837858582E+01    7.5011288299247285E+00
H    5.6235907855310721E+01    1.7135051344287579E+01    7.5009832566919732E+00
H    5.8097609717393794E+01    1.7136298291339344E+01    7.5007374999579826E+00
H    6.0522594379336653E+01    1.7140399762680012E+01    7.5004342341546320E+00
H    6.2381949156479855E+01    1.7154566326125543E+01    7.5000923296425333E+00
H    6.4846875520863179E+01    1.7148730383703889E+01    7.4994817939752032E+00
H    1.5153120984779157E+01    7.8512757759198628E+00    7.5011195039106022E+00
H    1.7618047266175896E+01    7.8454411268992246E+00    7.5003751474838420E+00
H    1.9477401718917417E+01    7.8596087056112047E+00    7.4998124357076064E+00
H    2.1902386373303404E+01    7.8637111197511782E+00    7.4994198580171485E+00
H    2.3764088013068402E+01    7.8649587212819494E+00    7.4990622261321809E+00
H    2.6187430930653157E+01    7.8649011394409509E+00    7.4989133729848421E+00
H    2.8055729548126710E+01    7.8647879624707855E+00    7.4989823587857583E+00
H    3.0479389992403348E+01    7.8645604158097289E+00    7.4990599380867620E+00
H    3.2348715379540039E+01    7.8646367838745910E+00    7.4993128248756369E+00
H    3.4772429844400826E+01    7.8645714769498518E+00    7.4994706140031351E+00
H    3.6641742311668004E+01    7.8646778427036708E+00    7.4996766279970792E+00
H    3.9065455494962109E+01    7.8646792527604594E+00    7.4997847548895855E+00
H    4.0934793447501960E+01    7.8647319083640399E+00    7.4998137563672227E+00
H    4.3358506354977166E+01    7.8648630594897480E+00    7.4998184357855120E+00
H    4.5227824601255485E+01    7.8648624594984966E+00    7.4997343716194713E+00
H    4.7651537873103649E+01    7.8650645291858643E+00    7.4996665800819544E+00
H    4.9520866973485987E+01    7.8650966615818936E+00    7.4995067354610061E+00
H    5.1944525106383352E+01    7.8654636365345727E+00    7.4993506104943712E+00
H    5.3812816408693877E+01    7.8656850464543533E+00    7.4990484198657459E+00
H    5.6236156261727395E+01    7.8658750986586936E+00    7.4987773008639005E+00
H    5.8097848295592712E+01    7.8647246369308652E+00    7.4982422556919097E+00
H    6.0522829814572461E+01    7.8607484095257387E+00    7.4978711322985214E+00
H    6.2382179565397763E+01    7.8466564896479687E+00    7.4974715819663169E+00
H    6.4847107540797467E+01    7.8526144736971490E+00    7.4967643150686589E+00
H    1.3904311630708454E+01    1.4976126928195734E+01    7.5024255351978404E+00
H    6.5789200921881857E+01    1.2500944430839287E+01    6.6172070003921286E+00
H    1.4210176936030077E+01    1.2499430073025469E+01    6.6211006374291497E+00
H    1.4210863839708958E+01    1.2499194076679691E+01    8.3828310010278351E+00
H    1.3904435171930738E+01    1.0022473482271481E+01    7.5017266962702083E+00
H    6.5789746932000625E+01    1.2500443188523121E+01    8.3789373643920673E+00
H    6.6095560326338628E+01    1.4977532121399680E+01    7.4986442322859563E+00
H    6.6095681307869270E+01    1.0023878778835559E+01    7.4971517073290226E+00
     &END COORD
     &KIND C
       BASIS_SET TZV2P-MOLOPT-GTH
       POTENTIAL GTH-PBE-q4
       &POTENTIAL
 2 2
  0.3384712400000000E+00 2 -0.8803673979999999E+01  0.1339210850000000E+01
 2
  0.3025757500000000E+00 1  0.9622486650000001E+01
  0.2915069400000000E+00 0
         # Potential name:  GTH-PBE-Q4  for symbol:  C
         # Potential read from the potential filename: ./GR
       &END POTENTIAL
     &END KIND
     &KIND H
       BASIS_SET TZV2P-MOLOPT-GTH
       POTENTIAL GTH-PBE-q1
       &POTENTIAL
 1
  0.2000000000000000E+00 2 -0.4178900440000000E+01  0.7244633100000000E+00
 0
         # Potential name:  GTH-PBE-Q1  for symbol:  H
         # Potential read from the potential filename: ./GR
       &END POTENTIAL
     &END KIND
     &TOPOLOGY
       COORD_FILE_NAME ./12units_7agnr.xyz
       COORD_FILE_FORMAT  XYZ
       NUMBER_OF_ATOMS  224
       MULTIPLE_UNIT_CELL  1 1 1
       &CENTER_COORDINATES  T
       &END CENTER_COORDINATES
     &END TOPOLOGY
   &END SUBSYS
 &END FORCE_EVAL
